benchmarks_vrp/CMT3/fixed_c/CMT3_1.vrp
NAME: CMT3_1
TYPE: CVRP
COMMENT: 826.14 - Cluster Nr.1
DIMENSION: 5
CAPACITY: 200
EDGE_WEIGHT_TYPE: EUC_2D
NODE_COORD_TYPE: TWOD_COORDS
NODE_COORD_SECTION: 
3 30 5
2 23 3
4 32 12
5 35 35
1 24 12
DEPOT_SECTION: 
5
-1
DEMAND_SECTION: 
2 7
3 8
5 0
1 5
4 7
EOF
