benchmarks_vrp/CMT3/fixed_c/CMT3_1.tour
NAME: CMT3_1 solution
TYPE: TOUR
TOUR_SECTION:
5 1 2 3 4 -1
-1
EOF